DATASET = "thpack6";
INSTANCE = "037";

WIDTH = 233;
HEIGHT = 220;
LENGTH = 587;

NO_OF_SHAPES = 15;
size = [|
  98,73,44 |
  60,60,38 |
  105,73,60 |
  90,77,52 |
  66,58,24 |
  106,76,55 |
  55,44,36 |
  82,58,23 |
  74,61,58 |
  81,39,24 |
  71,65,39 |
  105,97,47 |
  114,97,69 |
  103,78,55 |
  93,66,55 |
|];

verticality = [|
  0,1,1 |
  1,1,1 |
  1,1,1 |
  1,1,1 |
  0,0,1 |
  1,1,1 |
  1,1,1 |
  0,0,1 |
  1,1,1 |
  0,1,1 |
  1,1,1 |
  0,0,1 |
  1,1,1 |
  1,1,1 |
  1,1,1 |
|];

box_count = [
  6,
  7,
  10,
  3,
  5,
  10,
  12,
  7,
  6,
  8,
  11,
  4,
  5,
  6,
  6,
];
